(set-info :smt-lib-version 2.6)
(set-logic QF_UFLRA)
(set-info :source |
MathSat group

|)
(set-info :category "random")
(set-info :status sat)
(declare-fun x0 () Real)
(declare-fun x1 () Real)
(declare-fun x2 () Real)
(declare-fun x3 () Real)
(declare-fun x4 () Real)
(declare-fun x5 () Real)
(declare-fun x6 () Real)
(declare-fun x7 () Real)
(declare-fun x8 () Real)
(declare-fun x9 () Real)
(declare-fun x10 () Real)
(declare-fun x11 () Real)
(declare-fun x12 () Real)
(declare-fun x13 () Real)
(declare-fun x14 () Real)
(declare-fun x15 () Real)
(declare-fun x16 () Real)
(declare-fun x17 () Real)
(declare-fun x18 () Real)
(declare-fun x19 () Real)
(declare-fun x20 () Real)
(declare-fun x21 () Real)
(declare-fun x22 () Real)
(declare-fun x23 () Real)
(declare-fun x24 () Real)
(declare-fun x25 () Real)
(declare-fun x26 () Real)
(declare-fun x27 () Real)
(declare-fun x28 () Real)
(declare-fun x29 () Real)
(declare-fun x30 () Real)
(declare-fun x31 () Real)
(declare-fun x32 () Real)
(declare-fun x33 () Real)
(declare-fun x34 () Real)
(declare-fun x35 () Real)
(declare-fun x36 () Real)
(declare-fun x37 () Real)
(declare-fun x38 () Real)
(declare-fun x39 () Real)
(declare-fun f0_1 (Real) Real)
(declare-fun f0_2 (Real Real) Real)
(declare-fun f0_3 (Real Real Real) Real)
(declare-fun f0_4 (Real Real Real Real) Real)
(declare-fun P0 () Bool)
(declare-fun P1 () Bool)
(declare-fun P2 () Bool)
(declare-fun P3 () Bool)
(declare-fun P4 () Bool)
(declare-fun P5 () Bool)
(declare-fun P6 () Bool)
(declare-fun P7 () Bool)
(declare-fun P8 () Bool)
(declare-fun P9 () Bool)
(declare-fun P10 () Bool)
(declare-fun P11 () Bool)
(declare-fun P12 () Bool)
(declare-fun P13 () Bool)
(declare-fun P14 () Bool)
(declare-fun P15 () Bool)
(declare-fun P16 () Bool)
(declare-fun P17 () Bool)
(declare-fun P18 () Bool)
(declare-fun P19 () Bool)
(declare-fun P20 () Bool)
(declare-fun P21 () Bool)
(declare-fun P22 () Bool)
(declare-fun P23 () Bool)
(declare-fun P24 () Bool)
(declare-fun P25 () Bool)
(declare-fun P26 () Bool)
(declare-fun P27 () Bool)
(declare-fun P28 () Bool)
(declare-fun P29 () Bool)
(declare-fun P30 () Bool)
(declare-fun P31 () Bool)
(declare-fun P32 () Bool)
(declare-fun P33 () Bool)
(declare-fun P34 () Bool)
(declare-fun P35 () Bool)
(declare-fun P36 () Bool)
(declare-fun P37 () Bool)
(declare-fun P38 () Bool)
(declare-fun P39 () Bool)
(assert (let ((?v_90 (< (- (+ (* 47 x23) (* 26 x3)) (* 51 x37)) 37)) (?v_44 (distinct (+ (- (* 32 x19) (* 44 x6)) (* 49 x21)) 25)) (?v_35 (distinct (- (+ (* 56 x13) (* 15 x18)) (* 34 x29)) 27)) (?v_149 (= (- (- (* 14 x34) (* 12 x28)) (* 4 x37)) 38)) (?v_2 (* 7 x11)) (?v_201 (< (- (- (* 46 x31) (* 55 x1)) (* 8 x6)) 36)) (?v_138 (distinct (- (- (* 9 x39) (* 25 x25)) (* 32 x7)) 14)) (?v_19 (< (- (+ (* 36 x36) (* 5 x3)) (* 21 x20)) 41)) (?v_176 (= (- (- (* 46 x9) (* 4 x3)) (* 54 x29)) 53)) (?v_117 (= (f0_1 x18) (f0_1 x21))) (?v_144 (f0_1 x34)) (?v_145 (f0_1 x17))) (let ((?v_186 (distinct ?v_144 ?v_145)) (?v_62 (distinct (f0_1 x23) (f0_2 x39 x8))) (?v_10 (= (f0_1 x13) x23)) (?v_88 (distinct (f0_2 x12 x10) (f0_2 x31 x11))) (?v_51 (= (f0_2 x24 x32) (f0_2 x13 x39))) (?v_36 (= (f0_2 x22 x9) (f0_1 x38))) (?v_111 (distinct x15 x34)) (?v_64 (f0_1 x28))) (let ((?v_71 (= x3 ?v_64)) (?v_29 (distinct x27 x23)) (?v_39 (= x20 x32)) (?v_146 (distinct (f0_1 x31) x19)) (?v_140 (distinct (f0_2 x18 x10) (f0_2 x16 x38))) (?v_180 (distinct x14 x39)) (?v_32 (f0_1 x26))) (let ((?v_183 (= ?v_32 x33)) (?v_16 (distinct (f0_2 x39 x10) ?v_32)) (?v_25 (= x3 (f0_2 x30 x21))) (?v_169 (= (f0_1 x15) x19)) (?v_14 (f0_1 x33))) (let ((?v_52 (= ?v_14 (f0_2 x4 x17))) (?v_11 (f0_1 x5))) (let ((?v_100 (= (f0_2 x26 x7) ?v_11)) (?v_166 (distinct (f0_2 x15 x31) (f0_2 x14 x21))) (?v_86 (f0_1 x6))) (let ((?v_97 (distinct ?v_86 ?v_32)) (?v_54 (distinct ?v_86 x22)) (?v_48 (distinct x31 x19)) (?v_141 (= x15 x19)) (?v_116 (= x1 (f0_1 x4))) (?v_115 (distinct (f0_2 x28 x1) x3)) (?v_45 (= (f0_2 x29 x29) ?v_14)) (?v_17 (= ?v_11 (f0_2 x26 x25))) (?v_15 (= (f0_2 x33 x16) x29)) (?v_191 (distinct ?v_64 (f0_2 x27 x36))) (?v_34 (= x37 (f0_2 x5 x4))) (?v_43 (distinct x35 ?v_144)) (?v_59 (= x0 x34)) (?v_107 (distinct (f0_2 x0 x33) x14)) (?v_103 (= (f0_1 x8) x2)) (?v_147 (= (f0_2 x34 x12) x21)) (?v_46 (distinct (f0_2 x18 x32) (f0_2 x18 x11))) (?v_49 (= x36 (f0_2 x36 x27))) (?v_37 (not ?v_39)) (?v_1 (not P32)) (?v_18 (not P6)) (?v_21 (not P28)) (?v_7 (not ?v_90)) (?v_84 (not ?v_100)) (?v_5 (not P19))) (let ((?v_6 (not ?v_107)) (?v_80 (not P4)) (?v_3 (not ?v_180)) (?v_82 (not P25)) (?v_194 (not P1)) (?v_12 (not ?v_46)) (?v_150 (not ?v_49)) (?v_79 (not ?v_29)) (?v_47 (not P38)) (?v_155 (not P30)) (?v_197 (not P31)) (?v_23 (not P15)) (?v_33 (not ?v_52)) (?v_165 (not ?v_191)) (?v_118 (not ?v_15)) (?v_91 (not ?v_116)) (?v_162 (not ?v_45)) (?v_41 (not ?v_17)) (?v_85 (not ?v_25)) (?v_68 (not ?v_166)) (?v_99 (not ?v_111)) (?v_42 (not P37)) (?v_28 (not ?v_54)) (?v_130 (not P18)) (?v_129 (not P39)) (?v_143 (not P3)) (?v_55 (not ?v_117)) (?v_30 (not P26)) (?v_60 (not P12)) (?v_124 (not ?v_138)) (?v_185 (not ?v_48)) (?v_78 (not P23)) (?v_72 (not ?v_43)) (?v_105 (not ?v_36)) (?v_101 (not ?v_19)) (?v_75 (not ?v_34)) (?v_168 (not ?v_59)) (?v_67 (not (distinct x36 ?v_145))) (?v_65 (not ?v_44)) (?v_161 (not ?v_51)) (?v_188 (not P5)) (?v_142 (not ?v_16)) (?v_106 (not P14)) (?v_95 (not ?v_201)) (?v_114 (not ?v_141)) (?v_132 (not ?v_71)) (?v_87 (not P36)) (?v_102 (not P16)) (?v_139 (not P29)) (?v_113 (not ?v_176)) (?v_81 (not ?v_35)) (?v_126 (not P22)) (?v_184 (not ?v_146)) (?v_158 (not P17)) (?v_93 (not ?v_169)) (?v_98 (not ?v_10)) (?v_135 (not ?v_103)) (?v_108 (not P2)) (?v_136 (not P27)) (?v_109 (not P33)) (?v_128 (not P0)) (?v_173 (not P13)) (?v_127 (not ?v_97)) (?v_151 (not P10)) (?v_193 (not P34)) (?v_122 (not P35)) (?v_205 (not ?v_115)) (?v_177 (not ?v_88)) (?v_190 (not P20)) (?v_182 (not ?v_140)) (?v_159 (not P24)) (?v_187 (not P11)) (?v_171 (not P8)) (?v_174 (not P21)) (?v_172 (not ?v_147)) (?v_204 (not ?v_149)) (?v_195 (not ?v_186)) (?v_200 (not ?v_62)) (?v_203 (not P9)) (?v_202 (not P7)) (?v_0 (<= (- ?v_2 (* 36 x3)) 10))) (let ((?v_8 (not ?v_0)) (?v_196 (< (+ (* 2 x22) (* 5 x26) (* 18 x16)) 54))) (let ((?v_152 (not ?v_196)) (?v_31 (< (- (* 22 x21) (* 20 x38)) 18))) (let ((?v_104 (not ?v_31)) (?v_20 (<= (- (+ (* (- 24) x3) (* 4 x24)) (* 42 x10)) 15))) (let ((?v_148 (not ?v_20)) (?v_13 (<= (+ (- (* (- 46) x3) (* 9 x14)) (* 24 x37)) 12)) (?v_57 (<= (+ (- (* (- 50) x9) (* 24 x24)) (* 12 x2)) (- 42))) (?v_4 (<= (+ (- (* (- 19) x32) (* 33 x24)) (* 19 x1)) 35)) (?v_61 (<= (- (+ (* (- 17) x26) (* 20 x23)) (* 29 x25)) 28)) (?v_9 (< (- (- (* (- 4) x38) ?v_2) (* 50 x14)) 42)) (?v_27 (< (- (- (* (- 10) x23) (* 37 x10)) 0) (- 23)))) (let ((?v_66 (not ?v_27)) (?v_26 (not ?v_4)) (?v_96 (< (- (- (* (- 11) x8) (* 49 x6)) (* 15 x17)) (- 52))) (?v_56 (not ?v_13)) (?v_167 (< (+ (* (- 41) x35) (* 15 x21) (* 50 x28)) (- 3))) (?v_76 (< (- (+ (* (- 36) x34) (* 4 x38)) (* 47 x34)) (- 21))) (?v_38 (<= (- (+ (* (- 45) x7) (* 23 x7)) (* 42 x34)) 25)) (?v_22 (<= (+ (- (* 13 x22) (* 40 x26)) (* 22 x29)) (- 34)))) (let ((?v_119 (not ?v_22)) (?v_63 (not ?v_9)) (?v_112 (< (+ (- (* 4 x17) (* 50 x30)) (* 18 x24)) (- 44))) (?v_73 (<= (- (+ (* (- 33) x39) (* 15 x22)) (* 51 x20)) 37)) (?v_110 (<= (+ (- (* (- 57) x1) (* 32 x39)) (* 37 x23)) (- 29)))) (let ((?v_24 (not ?v_110)) (?v_77 (<= (+ (* 33 x19) (* 37 x17) (* 7 x20)) (- 53)))) (let ((?v_137 (not ?v_77)) (?v_154 (= (+ (* 18 x9) (* 2 x24) (* 4 x2)) (- 32)))) (let ((?v_40 (not ?v_154)) (?v_89 (distinct (+ (* (- 20) x24) (* 15 x25) (* 17 x6)) 1))) (let ((?v_133 (not ?v_89)) (?v_53 (<= (+ (* (- 47) x10) (* 44 x22) (* 47 x31)) 11)) (?v_74 (<= (- (* 57 x1) (* 16 x1)) (- 28)))) (let ((?v_123 (not ?v_74)) (?v_58 (< (+ (* (- 26) x14) (* 39 x5) (* 54 x8)) 52))) (let ((?v_50 (not ?v_58)) (?v_69 (not ?v_38)) (?v_175 (not ?v_57)) (?v_120 (= (- (+ (* (- 18) x2) (* 38 x29)) (* 12 x25)) (- 56))) (?v_70 (<= (+ (- (* (- 4) x2) (* 15 x33)) (* 46 x13)) 28))) (let ((?v_125 (not ?v_70)) (?v_192 (< (+ (- (* 24 x36) (* 24 x34)) (* 30 x25)) (- 21)))) (let ((?v_198 (not ?v_192)) (?v_160 (not ?v_53)) (?v_94 (not ?v_76)) (?v_164 (not ?v_73)) (?v_83 (<= (- (+ (* 33 x23) (* 12 x3)) (* 11 x29)) (- 7)))) (let ((?v_92 (not ?v_83)) (?v_163 (<= (- (- (* 11 x27) (* 14 x17)) (* 45 x2)) (- 14)))) (let ((?v_121 (not ?v_163)) (?v_153 (< (- (+ (* (- 51) x24) (* 26 x12)) (* 29 x14)) 30)) (?v_134 (< (- (+ (* 22 x3) (* 31 x27)) (* 38 x26)) (- 10)))) (let ((?v_131 (not ?v_134)) (?v_189 (not ?v_112)) (?v_179 (not ?v_61)) (?v_156 (not ?v_120)) (?v_157 (<= (- (+ (* (- 15) x29) (* 37 x29)) (* 11 x39)) (- 11)))) (let ((?v_170 (not ?v_157)) (?v_181 (not ?v_153)) (?v_178 (not ?v_96)) (?v_199 (not ?v_167))) (and (and (and (and (and (and (and (and (and (and (and (and (and (and (and (and (and (and (and (and (and (and (and (and (and (and (and (and (and (and (and (and (and (and (and (and (and (and (and (and (and (and (and (and (and (and (and (and (and (and (and (and (and (and (and (and (and (and (and (and (and (and (and (and (and (and (and (and (and (and (and (and (and (and (and (and (and (and (and (and (and (and (and (and (and (and (and (and (and (and (and (and (and (and (and (and (and (and (and (and (and (and (and (and (and (and (and (and (and (and (and (and (and (and (and (and (and (and (and (and (and (and (and (and (and (and (and (and (and (and (and (and (and (and (and (and (and (and (and (and (and (and (and (and (and (and (and (and (and (and (and (and (and (and (and (and (and (and (and (and (and (and (and (and (and (and (and (and (and (and (and (and (and (and (and (and (and (and (and (and (and (and (and (and (and (and (and (and (and (and (and (and (and (and (and (and (and (and (and (and (and (and (and (and (and (and (and (and (and (and (and (and (and (and (and (and (and (and (and (and (and (and (and (and (and (and (and (and (and (and (and (and (and (and (and (and (and (and (and (and (and (and (and (and (and (and (and (and (and (and (and (and (and (and (and (and (and (and (and (and (and (and (and (and (and (and (and (and (and (and (and (and (and (and (and (and (and (and (and (and (and (and (and (and (and (and (and (and (and (and (and (and (and (and (and (and (and (and (and (and (and (and (and (and (and (and (and (and (and (and (and (and (and (and (and (and (and (and (and (and (and (and (and (and (and (and (and (and (and (and (and (and (and (and (and (and (and (and (and (and (and (and (and (and (and (and (and (and (and (and (and (and (and (and (and (and (and (and (and (and (and (and (and (and (and (and (and (and (and (and (and (and (and (and (and (and (and (and (and (and (and (and (and (and (and (and (and (and (and (and (and (and (and (and (and (and (and (and (and (and (and (and (and (and (and (and (and (and (and (and (and (and (and (and (and (and (and (and (and (and (and (and (and (and (and (and (and (and (and (and (and (and (and (and (and (and (and (and (and (and (and (and (and (and (and (and (and (and (and (and (and (and (and (and (and (and (and (and (and (and (and (and (and (and (and (and (and (and (and (and (and (and (and (and (and (and (and (and (and (or (or ?v_148 ?v_37) ?v_1) (or (or ?v_35 P8) ?v_0)) (or (or ?v_13 P5) ?v_8)) (or (or ?v_36 ?v_1) P0)) (or (or ?v_1 ?v_57) ?v_4)) (or (or ?v_18 ?v_21) ?v_7)) (or (or ?v_84 ?v_5) P36)) (or (or ?v_6 ?v_61) ?v_80)) (or (or ?v_152 P5) ?v_3)) (or (or P20 ?v_82) P6)) (or (or ?v_9 P17) ?v_194)) (or (or ?v_3 ?v_4) ?v_12)) (or (or ?v_5 ?v_6) ?v_10)) (or (or ?v_150 ?v_16) ?v_19)) (or (or ?v_66 ?v_7) ?v_79)) (or (or ?v_26 ?v_47) ?v_155)) (or (or ?v_197 ?v_23) ?v_96)) (or (or P33 ?v_33) ?v_8)) (or (or ?v_165 ?v_118) ?v_9)) (or (or ?v_10 ?v_44) ?v_91)) (or (or ?v_34 ?v_17) ?v_12)) (or (or ?v_56 ?v_31) ?v_167)) (or (or ?v_162 ?v_15) ?v_16)) (or (or ?v_41 ?v_85) ?v_7)) (or (or ?v_76 ?v_38) ?v_18)) (or (or ?v_119 ?v_17) ?v_16)) (or (or ?v_19 ?v_20) ?v_68)) (or (or ?v_63 P25) ?v_112)) (or (or ?v_140 ?v_16) ?v_4)) (or (or ?v_73 ?v_99) ?v_42)) (or (or ?v_24 ?v_28) P22)) (or (or ?v_21 ?v_130) ?v_129)) (or (or ?v_22 ?v_23) ?v_143)) (or (or ?v_24 ?v_25) ?v_18)) (or (or ?v_22 ?v_55) ?v_30)) (or (or ?v_26 ?v_137) ?v_60)) (or (or ?v_124 ?v_185) ?v_78)) (or (or ?v_72 P16) ?v_27)) (or (or ?v_51 ?v_28) ?v_26)) (or (or ?v_29 ?v_30) P21)) (or (or P6 ?v_40) ?v_31)) (or (or ?v_17 P3) ?v_183)) (or (or ?v_33 ?v_133) ?v_6)) (or (or ?v_34 ?v_35) ?v_53)) (or (or ?v_21 ?v_123) ?v_105)) (or (or ?v_37 P23) ?v_38)) (or (or ?v_30 ?v_39) ?v_8)) (or (or ?v_5 ?v_101) ?v_75)) (or (or ?v_103 ?v_40) P3)) (or (or ?v_7 ?v_41) ?v_50)) (or (or ?v_168 ?v_27) ?v_67)) (or (or ?v_42 ?v_69) ?v_43)) (or (or ?v_38 ?v_5) ?v_65)) (or (or ?v_45 ?v_46) ?v_47)) (or (or ?v_48 ?v_49) ?v_50)) (or (or ?v_161 ?v_52) ?v_53)) (or (or ?v_188 P21) P12)) (or (or ?v_53 P21) P36)) (or (or ?v_54 ?v_62) ?v_55)) (or (or P36 ?v_142) ?v_56)) (or (or P22 ?v_37) ?v_10)) (or (or ?v_175 ?v_106) ?v_58)) (or (or ?v_45 ?v_59) ?v_60)) (or (or ?v_61 P15) ?v_120)) (or (or ?v_62 P6) ?v_95)) (or (or ?v_114 ?v_45) ?v_63)) (or (or ?v_47 ?v_35) ?v_132)) (or (or ?v_65 ?v_55) ?v_125)) (or (or ?v_66 P31) ?v_54)) (or (or ?v_67 ?v_87) ?v_102)) (or (or ?v_48 ?v_68) ?v_56)) (or (or ?v_56 ?v_139) ?v_69)) (or (or P15 ?v_3) ?v_70)) (or (or ?v_198 ?v_113) ?v_71)) (or (or P18 ?v_72) ?v_18)) (or (or ?v_73 ?v_54) ?v_61)) (or (or ?v_74 ?v_37) ?v_17)) (or (or ?v_7 ?v_70) ?v_6)) (or (or ?v_75 ?v_160) ?v_94)) (or (or ?v_164 ?v_77) ?v_92)) (or (or ?v_81 ?v_78) ?v_126)) (or (or ?v_73 P25) ?v_79)) (or (or ?v_36 ?v_80) ?v_81)) (or (or ?v_121 ?v_82) ?v_81)) (or (or ?v_83 ?v_88) ?v_84)) (or (or P35 ?v_184) ?v_81)) (or (or ?v_85 ?v_71) P3)) (or (or ?v_77 ?v_9) ?v_97)) (or (or ?v_158 ?v_22) ?v_87)) (or (or ?v_77 ?v_93) ?v_88)) (or (or ?v_74 P4) ?v_153)) (or (or ?v_98 ?v_44) ?v_104)) (or (or P14 ?v_49) P13)) (or (or P23 ?v_69) ?v_72)) (or (or ?v_89 P20) ?v_90)) (or (or ?v_91 ?v_24) ?v_92)) (or (or P26 P38) ?v_93)) (or (or ?v_45 ?v_41) ?v_94)) (or (or ?v_95 ?v_96) ?v_41)) (or (or ?v_94 ?v_13) ?v_0)) (or (or P17 ?v_16) ?v_115)) (or (or ?v_36 ?v_97) ?v_20)) (or (or ?v_147 ?v_35) P38)) (or (or ?v_98 ?v_99) ?v_100)) (or (or ?v_101 ?v_33) ?v_102)) (or (or P38 ?v_135) P8)) (or (or P20 ?v_108) ?v_6)) (or (or P19 ?v_3) ?v_136)) (or (or ?v_3 P4) ?v_104)) (or (or ?v_105 ?v_106) ?v_100)) (or (or ?v_20 ?v_68) P28)) (or (or ?v_39 P6) ?v_109)) (or (or ?v_42 ?v_107) ?v_108)) (or (or ?v_33 ?v_85) P1)) (or (or ?v_131 ?v_75) ?v_149)) (or (or ?v_109 ?v_110) ?v_43)) (or (or ?v_128 P24) ?v_96)) (or (or P37 ?v_75) ?v_88)) (or (or ?v_111 ?v_103) P35)) (or (or ?v_173 ?v_189) ?v_127)) (or (or ?v_56 ?v_65) ?v_113)) (or (or ?v_151 ?v_193) ?v_110)) (or (or ?v_5 ?v_114) P37)) (or (or ?v_97 ?v_122) ?v_205)) (or (or ?v_83 ?v_179) ?v_116)) (or (or ?v_50 ?v_3) ?v_47)) (or (or ?v_87 ?v_117) ?v_118)) (or (or ?v_94 P18) ?v_18)) (or (or P25 ?v_119) ?v_29)) (or (or ?v_77 ?v_156) P6)) (or (or ?v_116 ?v_121) P27)) (or (or ?v_104 P24) ?v_122)) (or (or ?v_43 P4) ?v_123)) (or (or ?v_100 ?v_124) ?v_125)) (or (or ?v_87 ?v_126) ?v_19)) (or (or ?v_16 ?v_28) ?v_120)) (or (or ?v_79 ?v_12) ?v_119)) (or (or P39 P18) ?v_50)) (or (or ?v_60 ?v_19) ?v_31)) (or (or ?v_73 P33) ?v_6)) (or (or ?v_127 ?v_8) ?v_94)) (or (or ?v_128 ?v_56) ?v_54)) (or (or ?v_118 P6) ?v_129)) (or (or ?v_53 P36) P19)) (or (or ?v_106 ?v_119) ?v_177)) (or (or ?v_130 ?v_131) ?v_94)) (or (or ?v_30 ?v_97) ?v_38)) (or (or ?v_30 P2) ?v_78)) (or (or ?v_132 ?v_111) ?v_3)) (or (or P27 ?v_133) ?v_134)) (or (or ?v_34 P25) ?v_135)) (or (or P37 ?v_0) ?v_170)) (or (or ?v_136 ?v_137) ?v_90)) (or (or ?v_128 ?v_138) P15)) (or (or ?v_190 ?v_51) P16)) (or (or ?v_96 ?v_65) ?v_139)) (or (or ?v_182 ?v_140) ?v_109)) (or (or P39 ?v_47) ?v_159)) (or (or ?v_104 P12) ?v_65)) (or (or ?v_141 ?v_105) ?v_56)) (or (or ?v_142 ?v_143) ?v_186)) (or (or ?v_146 ?v_55) ?v_132)) (or (or ?v_81 ?v_147) ?v_148)) (or (or ?v_74 ?v_76) ?v_132)) (or (or ?v_135 ?v_40) P33)) (or (or ?v_149 ?v_150) ?v_34)) (or (or ?v_75 ?v_24) ?v_50)) (or (or ?v_128 ?v_131) ?v_151)) (or (or ?v_152 ?v_13) ?v_181)) (or (or ?v_108 ?v_130) ?v_53)) (or (or ?v_154 P36) ?v_8)) (or (or ?v_155 ?v_138) P36)) (or (or ?v_83 ?v_41) ?v_39)) (or (or ?v_51 ?v_72) ?v_141)) (or (or ?v_87 P18) ?v_156)) (or (or ?v_157 ?v_42) ?v_158)) (or (or ?v_149 ?v_27) ?v_21)) (or (or ?v_187 ?v_159) ?v_171)) (or (or ?v_160 ?v_88) ?v_95)) (or (or ?v_52 P10) ?v_161)) (or (or ?v_162 ?v_78) ?v_0)) (or (or ?v_163 ?v_79) ?v_120)) (or (or ?v_12 P16) ?v_61)) (or (or ?v_164 ?v_7) P9)) (or (or ?v_6 P23) ?v_165)) (or (or ?v_126 ?v_166) ?v_167)) (or (or ?v_74 P21) ?v_168)) (or (or ?v_62 P32) ?v_46)) (or (or P16 P33) P15)) (or (or ?v_37 ?v_169) ?v_146)) (or (or ?v_163 ?v_112) ?v_34)) (or (or ?v_59 ?v_1) ?v_79)) (or (or ?v_174 ?v_52) P22)) (or (or ?v_172 ?v_46) ?v_7)) (or (or ?v_48 P18) P1)) (or (or ?v_81 ?v_80) ?v_53)) (or (or ?v_146 ?v_39) P28)) (or (or ?v_92 ?v_154) ?v_34)) (or (or ?v_170 ?v_36) P9)) (or (or ?v_129 ?v_136) ?v_117)) (or (or ?v_130 ?v_62) ?v_52)) (or (or ?v_17 ?v_125) ?v_26)) (or (or ?v_140 ?v_36) ?v_106)) (or (or P20 ?v_109) ?v_45)) (or (or P37 P20) ?v_165)) (or (or ?v_6 ?v_62) ?v_129)) (or (or ?v_69 ?v_87) ?v_134)) (or (or ?v_62 ?v_5) ?v_43)) (or (or ?v_167 ?v_9) ?v_54)) (or (or ?v_60 ?v_0) ?v_119)) (or (or ?v_130 ?v_171) ?v_132)) (or (or ?v_61 ?v_109) ?v_20)) (or (or ?v_49 ?v_104) P12)) (or (or ?v_117 ?v_163) ?v_130)) (or (or ?v_149 ?v_54) ?v_113)) (or (or ?v_109 ?v_47) ?v_16)) (or (or ?v_69 ?v_18) ?v_178)) (or (or P14 ?v_99) ?v_13)) (or (or ?v_168 ?v_67) ?v_204)) (or (or P4 ?v_68) ?v_172)) (or (or ?v_152 ?v_122) ?v_162)) (or (or ?v_165 ?v_173) ?v_12)) (or (or P23 P39) P0)) (or (or ?v_99 ?v_133) ?v_22)) (or (or P39 ?v_97) ?v_67)) (or (or ?v_9 ?v_174) ?v_199)) (or (or ?v_108 ?v_175) ?v_163)) (or (or ?v_176 ?v_177) ?v_108)) (or (or ?v_178 P25) ?v_42)) (or (or ?v_15 ?v_156) ?v_108)) (or (or ?v_110 ?v_90) P33)) (or (or ?v_31 ?v_96) ?v_142)) (or (or ?v_57 ?v_101) ?v_52)) (or (or ?v_102 ?v_72) ?v_31)) (or (or ?v_46 ?v_114) ?v_108)) (or (or ?v_179 ?v_116) ?v_147)) (or (or P9 ?v_180) ?v_162)) (or (or P25 ?v_129) ?v_181)) (or (or ?v_48 ?v_113) ?v_127)) (or (or ?v_23 ?v_62) ?v_178)) (or (or P33 ?v_182) ?v_82)) (or (or ?v_98 ?v_109) ?v_113)) (or (or P31 ?v_41) ?v_21)) (or (or ?v_151 P36) P38)) (or (or ?v_183 ?v_132) ?v_89)) (or (or ?v_60 P17) ?v_70)) (or (or P14 ?v_48) ?v_58)) (or (or ?v_45 P20) P9)) (or (or ?v_112 ?v_111) ?v_165)) (or (or P13 P13) ?v_135)) (or (or ?v_124 P23) ?v_125)) (or (or ?v_179 ?v_167) ?v_159)) (or (or ?v_29 ?v_183) ?v_184)) (or (or ?v_107 ?v_152) ?v_158)) (or (or ?v_185 P22) ?v_85)) (or (or P37 ?v_132) ?v_60)) (or (or ?v_20 ?v_48) ?v_112)) (or (or ?v_157 P31) ?v_3)) (or (or ?v_33 P10) ?v_94)) (or (or ?v_50 ?v_72) ?v_81)) (or (or ?v_186 P32) ?v_148)) (or (or ?v_154 ?v_40) ?v_175)) (or (or P11 ?v_37) ?v_180)) (or (or ?v_136 P36) ?v_61)) (or (or ?v_29 ?v_25) ?v_124)) (or (or ?v_36 ?v_159) ?v_172)) (or (or ?v_115 ?v_110) ?v_6)) (or (or ?v_148 ?v_79) ?v_74)) (or (or ?v_187 ?v_188) ?v_137)) (or (or ?v_179 ?v_130) ?v_165)) (or (or ?v_80 ?v_45) ?v_18)) (or (or ?v_152 ?v_88) ?v_172)) (or (or ?v_134 ?v_18) ?v_133)) (or (or ?v_81 ?v_189) ?v_195)) (or (or P18 ?v_59) P36)) (or (or ?v_23 P6) ?v_190)) (or (or P4 ?v_34) ?v_99)) (or (or P9 ?v_84) P23)) (or (or ?v_63 ?v_136) ?v_4)) (or (or ?v_128 ?v_136) ?v_187)) (or (or ?v_152 ?v_48) ?v_112)) (or (or ?v_27 ?v_74) ?v_181)) (or (or ?v_122 ?v_183) ?v_4)) (or (or P29 ?v_0) P31)) (or (or ?v_191 P5) ?v_109)) (or (or ?v_117 ?v_79) ?v_139)) (or (or ?v_181 ?v_165) ?v_84)) (or (or P1 ?v_12) ?v_57)) (or (or ?v_41 ?v_130) ?v_45)) (or (or ?v_188 ?v_122) ?v_139)) (or (or ?v_57 ?v_192) ?v_119)) (or (or ?v_58 ?v_200) ?v_18)) (or (or ?v_109 ?v_181) P5)) (or (or ?v_74 P11) P2)) (or (or ?v_172 P13) ?v_152)) (or (or P34 ?v_98) ?v_95)) (or (or P12 ?v_41) ?v_111)) (or (or P20 ?v_146) ?v_87)) (or (or ?v_192 ?v_155) P25)) (or (or ?v_97 ?v_126) ?v_143)) (or (or ?v_81 ?v_97) P35)) (or (or ?v_183 ?v_58) ?v_13)) (or (or ?v_165 ?v_94) ?v_186)) (or (or ?v_193 ?v_102) ?v_160)) (or (or ?v_156 ?v_16) ?v_104)) (or (or P8 ?v_99) ?v_113)) (or (or ?v_203 ?v_162) ?v_177)) (or (or P21 ?v_56) ?v_75)) (or (or ?v_20 ?v_105) ?v_31)) (or (or ?v_157 P7) P21)) (or (or ?v_194 P22) ?v_33)) (or (or ?v_17 P20) ?v_162)) (or (or ?v_20 ?v_106) ?v_158)) (or (or ?v_106 P24) ?v_195)) (or (or P25 (not ?v_183)) ?v_71)) (or (or ?v_196 ?v_36) ?v_128)) (or (or ?v_167 ?v_168) ?v_128)) (or (or ?v_30 ?v_5) ?v_143)) (or (or ?v_114 ?v_63) ?v_149)) (or (or ?v_96 ?v_149) ?v_41)) (or (or ?v_72 ?v_181) ?v_7)) (or (or P29 ?v_141) ?v_9)) (or (or P32 ?v_101) ?v_34)) (or (or ?v_177 ?v_133) ?v_167)) (or (or P38 ?v_179) ?v_22)) (or (or P4 ?v_7) ?v_67)) (or (or P5 ?v_51) ?v_171)) (or (or P10 ?v_61) ?v_15)) (or (or ?v_3 ?v_62) ?v_92)) (or (or ?v_161 ?v_8) ?v_50)) (or (or P36 ?v_92) ?v_99)) (or (or ?v_7 ?v_36) P39)) (or (or ?v_31 ?v_82) ?v_69)) (or (or ?v_122 ?v_30) ?v_63)) (or (or P25 ?v_91) ?v_71)) (or (or ?v_73 ?v_3) ?v_72)) (or (or ?v_197 ?v_198) P19)) (or (or ?v_146 P27) ?v_164)) (or (or ?v_146 P30) ?v_180)) (or (or ?v_194 ?v_40) ?v_111)) (or (or ?v_107 P1) ?v_75)) (or (or ?v_146 ?v_1) ?v_125)) (or (or ?v_116 ?v_15) P1)) (or (or ?v_109 ?v_79) ?v_113)) (or (or ?v_45 ?v_90) ?v_187)) (or (or P1 P9) ?v_1)) (or (or ?v_82 ?v_120) ?v_10)) (or (or ?v_167 ?v_21) ?v_155)) (or (or ?v_199 P32) P8)) (or (or ?v_194 ?v_111) ?v_125)) (or (or ?v_37 ?v_164) ?v_156)) (or (or ?v_118 ?v_58) ?v_111)) (or (or ?v_199 ?v_104) P18)) (or (or P10 ?v_118) ?v_159)) (or (or ?v_181 P11) ?v_98)) (or (or ?v_172 ?v_104) ?v_154)) (or (or P24 P10) ?v_19)) (or (or ?v_112 ?v_1) ?v_93)) (or (or P9 ?v_155) ?v_189)) (or (or ?v_69 ?v_15) ?v_141)) (or (or ?v_151 ?v_55) ?v_66)) (or (or P24 ?v_191) ?v_193)) (or (or P4 ?v_77) ?v_132)) (or (or ?v_85 ?v_97) ?v_35)) (or (or ?v_66 ?v_82) P37)) (or (or ?v_159 ?v_72) P7)) (or (or ?v_9 ?v_185) ?v_180)) (or (or ?v_109 ?v_45) ?v_53)) (or (or ?v_200 ?v_184) ?v_20)) (or (or ?v_42 ?v_166) ?v_52)) (or (or P0 ?v_155) ?v_77)) (or (or P39 ?v_196) ?v_105)) (or (or ?v_22 ?v_164) ?v_162)) (or (or ?v_23 ?v_146) ?v_71)) (or (or ?v_105 P16) ?v_38)) (or (or ?v_67 ?v_16) ?v_72)) (or (or ?v_59 P32) ?v_31)) (or (or P31 ?v_193) ?v_5)) (or (or ?v_118 ?v_33) ?v_164)) (or (or ?v_122 P22) ?v_15)) (or (or ?v_39 ?v_192) ?v_129)) (or (or ?v_143 ?v_31) ?v_101)) (or (or ?v_84 ?v_99) ?v_82)) (or (or ?v_118 ?v_169) P19)) (or (or ?v_100 ?v_82) ?v_194)) (or (or ?v_30 ?v_9) ?v_98)) (or (or ?v_146 ?v_172) ?v_131)) (or (or ?v_53 ?v_108) ?v_51)) (or (or ?v_8 ?v_39) ?v_194)) (or (or ?v_93 ?v_0) ?v_4)) (or (or ?v_33 P19) ?v_189)) (or (or ?v_16 ?v_84) ?v_201)) (or (or ?v_68 ?v_123) ?v_193)) (or (or ?v_51 ?v_151) ?v_19)) (or (or ?v_111 ?v_92) ?v_131)) (or (or ?v_142 ?v_18) ?v_44)) (or (or ?v_134 ?v_170) ?v_135)) (or (or ?v_4 ?v_137) P27)) (or (or ?v_10 ?v_100) ?v_31)) (or (or ?v_179 P38) ?v_160)) (or (or ?v_49 ?v_75) ?v_202)) (or (or ?v_52 ?v_156) P20)) (or (or ?v_29 P31) ?v_30)) (or (or ?v_183 ?v_202) ?v_138)) (or (or ?v_141 P21) ?v_166)) (or (or ?v_154 ?v_46) ?v_192)) (or (or ?v_81 ?v_4) ?v_186)) (or (or ?v_99 ?v_87) ?v_0)) (or (or ?v_192 ?v_110) ?v_50)) (or (or ?v_43 ?v_132) ?v_193)) (or (or ?v_127 ?v_135) ?v_132)) (or (or ?v_8 ?v_52) P1)) (or (or ?v_113 ?v_186) ?v_203)) (or (or ?v_35 ?v_140) P8)) (or (or ?v_158 P11) P13)) (or (or ?v_193 ?v_105) ?v_142)) (or (or P26 ?v_42) ?v_69)) (or (or ?v_35 ?v_120) ?v_136)) (or (or ?v_21 ?v_173) ?v_134)) (or (or ?v_128 ?v_95) ?v_115)) (or (or ?v_195 ?v_153) ?v_3)) (or (or P7 ?v_204) ?v_205)) (or (or P22 ?v_146) ?v_27)) (or (or P37 ?v_185) ?v_203)) (or (or P4 ?v_119) P21)) (or (or P14 ?v_137) ?v_88)) (or (or ?v_196 ?v_148) ?v_166)) (or (or ?v_183 P6) ?v_148)) (or (or P0 ?v_143) ?v_21)) (or (or ?v_60 ?v_48) ?v_172)) (or (or P31 ?v_133) ?v_186)) (or (or ?v_152 ?v_93) ?v_23)) (or (or P11 ?v_174) ?v_195)) (or (or P3 ?v_183) ?v_157)) (or (or ?v_52 ?v_188) P14)) (or (or ?v_159 ?v_174) ?v_200)) (or (or ?v_113 ?v_71) P7)) (or (or P3 ?v_4) ?v_39)) (or (or ?v_125 ?v_123) P0)) (or (or ?v_62 ?v_170) ?v_102)) (or (or P10 ?v_87) ?v_70)) (or (or ?v_65 P14) ?v_114)) (or (or ?v_36 ?v_44) ?v_141)) (or (or ?v_121 ?v_161) ?v_73)) (or (or ?v_141 ?v_188) P38)) (or (or ?v_149 P1) ?v_147)) (or (or ?v_136 ?v_6) ?v_163)) (or (or ?v_95 P21) ?v_83)) (or (or ?v_99 ?v_197) P39)) (or (or ?v_44 ?v_15) P3)) (or (or ?v_196 ?v_157) ?v_31)) (or (or ?v_73 ?v_13) ?v_74)) (or (or ?v_100 ?v_47) P15)) (or (or P26 ?v_113) ?v_46)) (or (or ?v_119 ?v_56) ?v_37)) (or (or P23 ?v_185) ?v_157)) (or (or ?v_46 ?v_164) ?v_139)) (or (or ?v_88 ?v_8) ?v_21)) (or (or ?v_68 ?v_24) ?v_79)) (or (or ?v_162 ?v_66) ?v_114)) (or (or P39 ?v_90) P20)) (or (or ?v_79 ?v_105) ?v_77)) (or (or P17 P23) ?v_21)) (or (or ?v_72 P25) P5)) (or (or ?v_38 ?v_124) P5)) (or (or ?v_171 ?v_22) ?v_176)) (or (or ?v_58 ?v_132) ?v_30)) (or (or P23 ?v_122) ?v_195)) (or (or ?v_44 ?v_95) P24)) (or (or ?v_108 P12) ?v_65)) (or (or ?v_125 ?v_8) ?v_176)) (or (or P39 ?v_35) P23)) (or (or ?v_44 P9) ?v_168)) (or (or P31 ?v_73) ?v_189)) (or (or ?v_10 ?v_37) ?v_172)) (or (or ?v_103 ?v_37) ?v_44)) (or (or ?v_165 ?v_187) ?v_83)) (or (or P35 P11) ?v_115)) (or (or ?v_186 ?v_158) P24)) (or (or ?v_95 ?v_122) P37)))))))))))))))))))))))))))))
(check-sat)
(exit)
